(declare-fun e () String)
(declare-fun c () String)
(declare-fun g () String)
(declare-fun b () String)
(declare-fun d () String)
(declare-fun f () String)
(declare-fun a () String)
(declare-fun h () String)
(assert (= (str.++ c g d) (str.++ d "fd")))
(assert (= (str.++ "ee" c "d") (str.++ "e" e a f a)))
(assert (= (str.++ "c" e "g" h "h") b))

(check-sat)
